c Generated map
c Size: 8 * 8, weights in range: 1 to 10, walls: True, with ratio 0.05
c dim 7 of 9
c
p sp 64 103
c graph contains 64 nodes and 103 arcs
c
a 1 9 5
a 9 1 5
a 1 2 1
a 2 1 1
a 2 10 8
a 10 2 8
a 2 3 10
a 3 2 10
a 3 11 7
a 11 3 7
a 3 4 4
a 4 3 4
a 4 12 7
a 12 4 7
a 4 5 5
a 5 4 5
a 5 13 8
a 13 5 8
a 5 6 1
a 6 5 1
a 6 14 3
a 14 6 3
a 6 7 2
a 7 6 2
a 7 15 5
a 15 7 5
a 9 17 7
a 17 9 7
a 9 10 8
a 10 9 8
a 10 18 2
a 18 10 2
a 10 11 5
a 11 10 5
a 11 19 5
a 19 11 5
a 11 12 10
a 12 11 10
a 12 20 7
a 20 12 7
a 12 13 9
a 13 12 9
a 13 21 8
a 21 13 8
a 13 14 5
a 14 13 5
a 14 22 6
a 22 14 6
a 14 15 10
a 15 14 10
a 15 23 10
a 23 15 10
a 15 16 1
a 16 15 1
a 17 25 10
a 25 17 10
a 17 18 4
a 18 17 4
a 18 26 5
a 26 18 5
a 18 19 5
a 19 18 5
a 19 27 6
a 27 19 6
a 19 20 4
a 20 19 4
a 20 28 4
a 28 20 4
a 20 21 7
a 21 20 7
a 21 29 5
a 29 21 5
a 21 22 7
a 22 21 7
a 22 23 7
a 23 22 7
a 23 31 2
a 31 23 2
a 25 33 10
a 33 25 10
a 25 26 10
a 26 25 10
a 26 34 6
a 34 26 6
a 26 27 4
a 27 26 4
a 27 35 5
a 35 27 5
a 27 28 3
a 28 27 3
a 28 36 10
a 36 28 10
a 28 29 4
a 29 28 4
a 29 37 8
a 37 29 8
a 31 39 8
a 39 31 8
a 31 32 6
a 32 31 6
a 32 40 4
a 40 32 4
a 33 41 10
a 41 33 10
a 33 34 5
a 34 33 5
a 34 42 8
a 42 34 8
a 34 35 4
a 35 34 4
a 35 43 5
a 43 35 5
a 35 36 7
a 36 35 7
a 36 44 6
a 44 36 6
a 36 37 6
a 37 36 6
a 37 45 10
a 45 37 10
a 37 38 10
a 38 37 10
a 38 46 7
a 46 38 7
a 38 39 5
a 39 38 5
a 39 47 6
a 47 39 6
a 39 40 8
a 40 39 8
a 40 48 8
a 48 40 8
a 41 49 5
a 49 41 5
a 41 42 9
a 42 41 9
a 42 50 10
a 50 42 10
a 42 43 9
a 43 42 9
a 43 51 4
a 51 43 4
a 43 44 2
a 44 43 2
a 44 52 10
a 52 44 10
a 44 45 8
a 45 44 8
a 45 53 6
a 53 45 6
a 45 46 1
a 46 45 1
a 46 54 4
a 54 46 4
a 46 47 5
a 47 46 5
a 47 55 8
a 55 47 8
a 47 48 9
a 48 47 9
a 48 56 5
a 56 48 5
a 49 57 4
a 57 49 4
a 49 50 2
a 50 49 2
a 50 58 4
a 58 50 4
a 50 51 7
a 51 50 7
a 51 59 1
a 59 51 1
a 51 52 8
a 52 51 8
a 52 60 3
a 60 52 3
a 52 53 5
a 53 52 5
a 53 61 3
a 61 53 3
a 53 54 8
a 54 53 8
a 54 62 8
a 62 54 8
a 54 55 1
a 55 54 1
a 55 63 7
a 63 55 7
a 55 56 2
a 56 55 2
a 56 64 2
a 64 56 2
a 57 58 8
a 58 57 8
a 58 59 10
a 59 58 10
a 59 60 10
a 60 59 10
a 60 61 9
a 61 60 9
a 61 62 1
a 62 61 1
a 62 63 4
a 63 62 4
a 63 64 10
a 64 63 10
